c Random 6-CNF over 30 variables and 210 clauses
c Generated with `cnfgen`
c (C) 2012-2016 Massimo Lauria <lauria.massimo@gmail.com>
c https://massimolauria.github.io/cnfgen
c
c COMMAND LINE: cnfgen --output tmp-6-30-210.dimacs --output-format dimacs randkcnf 6 30 210
c
c sdimacs generated by gen-sdimacs
c
p cnf 30 210
r 0.5 1 2 3 4 5 6 7 8 9 10 11 12 13 14 15 0
e  16 17 18 19 20 21 22 23 24 25 26 27 28 29 30 0
-3 6 -17 -19 -25 27 0
-3 -7 -10 12 20 30 0
-9 10 -16 17 20 -25 0
-1 7 9 -10 -13 20 0
10 17 23 24 -25 27 0
1 -3 13 -18 -27 30 0
-2 4 7 -8 -18 27 0
-1 -4 -9 17 -21 22 0
11 -12 -18 -19 -21 24 0
-1 5 14 -15 -18 23 0
-3 4 -14 -21 -22 -30 0
-1 6 -14 -15 23 -30 0
3 -13 -14 -16 -25 -26 0
-4 -8 9 -15 -22 -27 0
-13 -14 15 19 21 23 0
4 7 -8 9 14 16 0
-2 -3 -5 -7 -18 -24 0
11 -12 -17 -22 -28 29 0
-12 13 -14 -15 -25 30 0
-5 -15 -20 -22 23 -29 0
-1 -2 8 -12 -18 22 0
5 6 7 10 15 24 0
-9 11 -17 23 25 30 0
2 -7 15 19 -21 -25 0
2 11 16 -17 18 -28 0
-8 9 10 -14 16 -23 0
-1 3 -4 -15 16 17 0
1 2 9 12 14 18 0
6 12 -13 -22 -29 30 0
-8 -10 12 18 26 30 0
-2 -3 5 -7 17 20 0
-4 -7 -14 -15 -22 -25 0
5 -9 -11 14 -24 25 0
4 -5 -16 19 -24 25 0
-5 11 13 -22 -23 25 0
-2 -5 -8 -18 19 30 0
-5 -6 -8 12 -17 -23 0
-14 15 16 20 -27 29 0
2 -5 -8 -10 -22 -30 0
-3 7 -19 -28 29 30 0
10 -15 -18 21 23 26 0
3 8 11 23 -27 -29 0
2 15 18 -19 24 25 0
7 9 14 -16 -23 28 0
5 -8 14 17 -24 25 0
-8 9 -12 15 -17 25 0
-6 10 -15 17 20 23 0
-3 -5 -16 -18 -24 -28 0
-4 12 -18 19 20 -29 0
1 -10 -11 24 25 29 0
9 12 13 -15 -29 30 0
8 -14 23 -25 27 28 0
-2 -3 -6 -13 -17 20 0
2 -11 13 -15 21 -22 0
4 10 13 -19 -26 -30 0
3 -10 27 28 29 30 0
-7 8 21 26 -28 30 0
3 -6 9 -16 17 22 0
1 -2 7 10 23 -30 0
6 11 -19 -21 -25 26 0
-2 4 10 23 -24 -28 0
-1 -2 6 -13 19 -25 0
-6 -8 -13 -15 17 -28 0
7 11 -12 16 -22 27 0
-2 -10 -19 -24 -26 30 0
-4 9 -19 21 24 30 0
-4 -8 -12 -15 -24 28 0
-6 -9 11 27 28 29 0
2 4 -11 19 -23 28 0
6 8 -13 -14 -17 -18 0
-3 8 10 12 -19 20 0
11 -12 13 -15 17 27 0
-2 -5 -16 20 27 29 0
-6 7 -11 17 18 -29 0
-3 4 -6 14 15 21 0
5 16 18 21 -25 29 0
-1 11 -12 26 28 30 0
-10 -14 20 -25 -28 -30 0
4 -5 -21 -22 26 27 0
4 13 -18 19 -23 -27 0
3 -6 -11 19 21 -23 0
5 6 9 16 20 27 0
2 -4 6 14 24 -26 0
-5 8 -11 -17 18 21 0
6 15 19 -22 -24 30 0
-2 15 -16 20 -27 29 0
4 -15 20 24 -26 -30 0
3 5 -6 -9 16 24 0
-2 5 -6 7 -8 22 0
6 -11 -14 19 23 -27 0
3 -4 11 -20 21 -22 0
-7 -12 17 18 21 26 0
-5 -6 13 17 28 -30 0
4 6 7 20 22 27 0
-1 2 -6 -7 21 25 0
-1 -14 -20 23 27 -30 0
4 14 22 23 24 28 0
-10 -14 -15 17 27 29 0
10 12 20 24 -26 -28 0
-3 -6 -12 22 23 -27 0
-4 5 16 -19 20 29 0
2 -4 15 -23 -27 -29 0
4 -9 10 -12 17 20 0
-4 -10 11 19 -24 25 0
-3 4 10 -12 23 -25 0
-6 14 -22 23 -26 -28 0
-4 -10 11 20 -26 30 0
-5 14 15 20 -22 -27 0
1 -12 -14 -17 -19 24 0
-5 13 18 -20 -23 -25 0
-2 3 -7 -8 -11 -23 0
-12 -16 20 -24 26 -28 0
-1 -4 -12 21 -26 -28 0
-1 -4 13 18 27 29 0
13 -16 21 -22 23 24 0
1 8 16 -19 23 27 0
2 -7 17 24 27 28 0
8 17 -18 25 -26 -29 0
-2 -10 21 25 -27 30 0
-5 6 7 -17 18 22 0
8 -18 -24 -25 -26 -27 0
4 -11 -14 19 -23 28 0
1 3 -17 20 -22 29 0
3 -8 13 -15 19 20 0
3 15 21 -22 25 -27 0
-3 9 -15 19 -20 26 0
8 11 14 -19 -27 -28 0
-8 10 16 18 20 24 0
3 4 -11 -13 17 25 0
-5 11 12 -24 -25 28 0
1 -7 8 -12 -15 -24 0
3 9 11 14 15 -17 0
6 8 -10 12 18 -24 0
1 5 12 -16 -18 -22 0
1 -4 5 -11 14 25 0
7 -13 -15 -17 19 -23 0
5 -6 12 14 -21 23 0
-3 -8 10 -11 -12 -20 0
-6 9 -12 -15 24 -27 0
5 -12 18 23 27 -28 0
6 10 15 18 -22 25 0
8 -12 -20 -25 29 30 0
2 3 -18 -20 -24 -28 0
-2 -4 -13 16 -17 -23 0
-3 20 25 27 -28 30 0
9 -12 -14 -15 -20 -26 0
3 -10 11 -15 -22 -29 0
13 15 20 -21 23 24 0
5 -6 -10 -18 -23 28 0
-7 13 -16 25 -26 -27 0
1 2 8 -10 27 -28 0
2 5 13 14 -21 -22 0
-8 9 -11 17 20 25 0
10 16 -19 20 27 28 0
4 6 -11 -12 13 -27 0
-6 -7 -12 21 -26 30 0
3 -11 -13 25 26 -29 0
-4 11 -15 -20 -26 -29 0
2 5 -9 -24 -26 -27 0
4 6 11 -15 25 27 0
10 14 21 -25 -26 -30 0
1 -2 -5 -11 12 -30 0
1 -2 -12 -19 -25 28 0
13 14 16 18 28 29 0
3 -8 22 24 -25 27 0
1 8 15 -17 -24 29 0
2 10 20 -21 26 27 0
2 -3 8 -22 24 28 0
-2 8 12 -25 -26 30 0
-2 9 -14 15 22 29 0
-3 -9 -13 18 26 28 0
-1 14 16 -24 26 30 0
-1 -5 -7 17 -20 23 0
-2 -6 12 -13 16 19 0
9 12 15 16 -24 25 0
5 6 -16 -18 21 30 0
2 7 12 -19 25 -26 0
-9 10 -13 -15 -16 -23 0
1 3 9 -22 -24 25 0
-2 8 -9 -21 23 -27 0
-7 -12 15 -26 -27 29 0
9 -11 22 24 -26 -28 0
-13 14 21 -23 -26 29 0
2 -6 -17 -18 24 -29 0
3 6 7 9 24 28 0
-7 16 -17 -18 -19 26 0
-4 7 -8 13 -18 20 0
2 10 14 15 28 29 0
1 6 7 13 20 -29 0
1 2 4 6 27 29 0
1 -4 -11 13 18 24 0
-11 15 -17 20 -22 24 0
6 7 -8 15 20 23 0
-2 -8 -13 -14 19 28 0
-7 13 -17 18 -25 -27 0
-1 4 9 -10 -14 21 0
7 -8 14 17 -19 30 0
-6 -9 16 -18 22 -23 0
1 -11 17 18 -23 -26 0
-6 9 -13 -16 18 20 0
-4 -6 -9 -13 19 -21 0
-1 6 13 16 21 -24 0
-7 -10 13 -16 -25 -29 0
4 -6 13 14 -18 26 0
2 -18 20 -22 23 26 0
5 -8 12 19 23 -27 0
6 11 12 15 -19 22 0
-8 11 16 18 25 28 0
-1 -3 5 -11 14 -22 0
3 4 12 -15 20 -22 0
